37
100
79	1
77	2
76	1
74	2
73	2
68	1
65	1
64	2
63	1
62	1
58	1
57	1
56	2
55	1
54	1
53	1
49	1
48	1
47	1
46	4
43	1
42	1
34	2
33	2
32	1
30	1
29	1
27	1
26	1
25	1
21	1
20	2
18	1
17	2
14	2
13	1
10	1
